     Program PWSCF v.6.6 starts on 12Oct2021 at  1:41:46

     R & G space division:  proc/nbgrp/npool/nimage =      32
     Fft bands division:     nmany     =       1
     Waiting for input...
     Reading input from standard input
Warning: card &CELL ignored
Warning: card / ignored

     Current dimensions of program PWSCF are:
     Max number of different atomic species (ntypx) = 10
     Max number of k-points (npk) =  40000
     Max angular momentum in pseudopotentials (lmaxx) =  3
     file Si.pbe-n-kjpaw_psl.1.0.0.UPF: wavefunction(s)  3S 3P renormalized
     file H.pbe-kjpaw_psl.1.0.0.UPF: wavefunction(s)  1S renormalized

     Subspace diagonalization in iterative solution of the eigenvalue problem:
     a serial algorithm will be used

     Message from routine setup:
     using ibrav=0 with symmetry is DISCOURAGED, use correct ibrav instead

     bravais-lattice index     =            0
     lattice parameter (alat)  =      14.5118  a.u.
     unit-cell volume          =    3387.4766 (a.u.)^3
     number of atoms/cell      =           14
     number of atomic types    =            2
     number of electrons       =        44.00
     number of Kohn-Sham states=           22
     kinetic-energy cutoff     =      20.0000  Ry
     charge density cutoff     =      80.0000  Ry
     convergence threshold     =      1.0E-06
     mixing beta               =       0.7000
     number of iterations used =            8  plain     mixing
     Exchange-correlation= SLA PW PBX PBC
                           (   1   4   3   4   0   0   0)
     nstep                     =           50

     celldm(1)=  14.511812  celldm(2)=   0.000000  celldm(3)=   0.000000
     celldm(4)=   0.000000  celldm(5)=   0.000000  celldm(6)=   0.000000

     crystal axes: (cart. coord. in units of alat)
               a(1) = (   1.000000   0.000000   0.000000 )
               a(2) = (   0.000000   0.500000   0.000000 )
               a(3) = (   0.000000   0.000000   2.216876 )

     reciprocal axes: (cart. coord. in units 2 pi/alat)
               b(1) = (  1.000000  0.000000  0.000000 )
               b(2) = (  0.000000  2.000000  0.000000 )
               b(3) = (  0.000000  0.000000  0.451085 )

     PseudoPot. # 1 for Si read from file:
     ./Si.pbe-n-kjpaw_psl.1.0.0.UPF
     MD5 check sum: c39c59da582df4a0d9f10159256ea34e
     Pseudo is Projector augmented-wave + core cor, Zval =  4.0
     Generated using "atomic" code by A. Dal Corso v.6.3
     Shape of augmentation charge: PSQ
     Using radial grid of 1141 points,  6 beta functions with:
                l(1) =   0
                l(2) =   0
                l(3) =   1
                l(4) =   1
                l(5) =   2
                l(6) =   2
     Q(r) pseudized with 0 coefficients

     PseudoPot. # 2 for H  read from file:
     ./H.pbe-kjpaw_psl.1.0.0.UPF
     MD5 check sum: d81a744832360e4a8af0b0b5b123bc2a
     Pseudo is Projector augmented-wave, Zval =  1.0
     Generated using "atomic" code by A. Dal Corso v.6.3MaX
     Shape of augmentation charge: PSQ
     Using radial grid of  929 points,  2 beta functions with:
                l(1) =   0
                l(2) =   0
     Q(r) pseudized with 0 coefficients

     atomic species   valence    mass     pseudopotential
        Si             4.00    28.08500     Si( 1.00)
        H              1.00     1.00800     H ( 1.00)

      2 Sym. Ops. (no inversion) found

   Cartesian axes

     site n.     atom                  positions (alat units)
         1           Si  tau(   1) = (   0.1588000   0.0000000   1.2064779  )
         2           Si  tau(   2) = (   0.8412000   0.0000000   1.3006165  )
         3           Si  tau(   3) = (   0.2344501   0.2500000   1.0944524  )
         4           Si  tau(   4) = (   0.7655499   0.2500000   1.0944524  )
         5           Si  tau(   5) = (   0.5000000   0.2500000   0.9318195  )
         6           Si  tau(   6) = (   0.0000000   0.2500000   0.8985744  )
         7           Si  tau(   7) = (   0.5000000   0.0000000   0.7479712  )
         8           Si  tau(   8) = (   0.0000000   0.0000000   0.7288679  )
         9           Si  tau(   9) = (   0.2500000   0.0000000   0.5627126  )
        10           Si  tau(  10) = (   0.7500000   0.0000000   0.5627126  )
        11           H   tau(  11) = (   0.2500000  -0.1573876   0.4514820  )
        12           H   tau(  12) = (   0.2500000   0.1573876   0.4514820  )
        13           H   tau(  13) = (   0.7500000  -0.1573876   0.4514820  )
        14           H   tau(  14) = (   0.7500000   0.1573876   0.4514820  )

     number of k points=     4
                       cart. coord. in units 2pi/alat
        k(    1) = (   0.0000000   0.0000000   0.0000000), wk =   0.2222222
        k(    2) = (   0.0000000   0.6666667   0.0000000), wk =   0.4444444
        k(    3) = (   0.3333333   0.0000000   0.0000000), wk =   0.4444444
        k(    4) = (   0.3333333   0.6666667   0.0000000), wk =   0.8888889

     Check: negative core charge=   -0.000006

     Initial potential from superposition of free atoms

     starting charge   43.99437, renormalised to   44.00000

     negative rho (up, down):  6.560E-03 0.000E+00
     Starting wfcs are   44 randomized atomic wfcs
     Checking if some PAW data can be deallocated...

     Self-consistent Calculation

     iteration #  1     ecut=    20.00 Ry     beta= 0.70
     Davidson diagonalization with overlap
     ethr =  1.00E-02,  avg # of iterations =  2.0

     negative rho (up, down):  1.187E-02 0.000E+00

     total energy              =    -471.42460758 Ry
     estimated scf accuracy    <       0.57923232 Ry

[...]

     End of self-consistent calculation

          k = 0.0000 0.0000 0.0000 (  5135 PWs)   bands (ev):

   -11.9178 -10.7965  -9.8706  -9.4304  -9.1865  -8.4770  -6.5151  -6.0758
    -5.4034  -3.8995  -3.7139  -3.2920  -2.9765  -2.5924  -2.4067  -2.0200
    -1.3591  -1.3432  -1.2076  -1.1186  -0.4922   0.0898

[...]

     highest occupied level (ev):     0.1423

!    total energy              =    -471.52639416 Ry

     total all-electron energy =     -5804.985027 Ry
     estimated scf accuracy    <       0.00000042 Ry

     The total energy is the sum of the following terms:
     one-electron contribution =    -373.53087127 Ry
     hartree contribution      =     198.38536377 Ry
     xc contribution           =     -64.08421413 Ry
     ewald contribution        =     123.63855910 Ry
     one-center paw contrib.   =    -355.93523162 Ry

     convergence has been achieved in  20 iterations

[...]

     Forces acting on atoms (cartesian axes, Ry/au):

     atom    1 type  1   force =    -0.12478649    0.00000000    0.05406238
     atom    2 type  1   force =     0.01844648    0.00000000   -0.07127512
     atom    3 type  1   force =     0.07970014    0.00000000   -0.04703636
     atom    4 type  1   force =     0.03083072    0.00000000    0.06571924
     atom    5 type  1   force =     0.00578741    0.00000000   -0.00135747
     atom    6 type  1   force =    -0.02301208    0.00000000    0.00987794
     atom    7 type  1   force =     0.00062944    0.00000000   -0.00172214
     atom    8 type  1   force =     0.01245255    0.00000000    0.00078433
     atom    9 type  1   force =     0.01148603    0.00000000    0.01088230
     atom   10 type  1   force =    -0.01532162    0.00000000    0.01311483
     atom   11 type  2   force =     0.00470119    0.01306966   -0.00852635
     atom   12 type  2   force =     0.00470119   -0.01306966   -0.00852635
     atom   13 type  2   force =    -0.00280748    0.01334551   -0.00799861
     atom   14 type  2   force =    -0.00280748   -0.01334551   -0.00799861

     Total force =     0.196394     Total SCF correction =     0.000839

     BFGS Geometry Optimization

     number of scf cycles    =   1
     number of bfgs steps    =   0

     energy   new            =    -471.5263941562 Ry

     new trust radius        =       0.1359941535 bohr
     new conv_thr            =       0.0000010000 Ry

ATOMIC_POSITIONS (angstrom)
Si            1.1534418325        0.0000000000        9.2935385815
Si            6.4696054576        0.0000000000        9.9501328308
Si            1.8425924955        1.9198300000        8.3797594295
Si            5.8952179118        1.9198300000        8.4394271232
Si            3.8427225645        1.9198300000        7.1550216558
Si           -0.0121774686        1.9198300000        6.9056671793
Si            3.8399930827        0.0000000000        5.7429986809
Si            0.0065896082        0.0000000000        5.5976250491
Si            1.9198300000        0.0000000000        4.3212500000    0   0   0
Si            5.7594900000        0.0000000000        4.3212500000    0   0   0
H             1.9198300000       -1.2086295000        3.4670751200    0   0   0
H             1.9198300000        1.2086295000        3.4670751200    0   0   0
H             5.7594900000       -1.2086295000        3.4670751200    0   0   0
H             5.7594900000        1.2086295000        3.4670751200    0   0   0

     Writing output data file ./pwscf.save/
     NEW-OLD atomic charge density approx. for the potential

[...]

     energy   old            =    -471.5263941562 Ry
     energy   new            =    -471.5587907953 Ry

     CASE: energy  _new < energy  _old

[...]

     Threshold (ethr) on eigenvalues was too large:
     Diagonalizing with lowered threshold

     Davidson diagonalization with overlap
     ethr =  6.98E-08,  avg # of iterations =  4.2

[...]

     number of scf cycles    =  25
     number of bfgs steps    =  24

     energy   old            =    -471.6032834786 Ry
     energy   new            =    -471.6032962872 Ry

     CASE: energy  _new < energy  _old

     new trust radius        =       0.0087518763 bohr
     new conv_thr            =       0.0000000100 Ry

ATOMIC_POSITIONS (angstrom)
Si            0.7854261348        0.0000000000        9.0441850885
Si            6.2941413788        0.0000000000        9.7632982151
Si            1.8892554009        1.9198300000        8.4137221615
Si            5.8643242748        1.9198300000        8.4624059383
Si            3.8891369824        1.9198300000        7.1245252978
Si           -0.0217198279        1.9198300000        6.9522139694
Si            3.8419509583        0.0000000000        5.7252560671
Si            0.0038732211        0.0000000000        5.6313432904
Si            1.9198300000        0.0000000000        4.3212500000    0   0   0
Si            5.7594900000        0.0000000000        4.3212500000    0   0   0
H             1.9198300000       -1.2086295000        3.4670751200    0   0   0
H             1.9198300000        1.2086295000        3.4670751200    0   0   0
H             5.7594900000       -1.2086295000        3.4670751200    0   0   0
H             5.7594900000        1.2086295000        3.4670751200    0   0   0

     Writing output data file ./pwscf.save/
     NEW-OLD atomic charge density approx. for the potential

     Check: negative core charge=   -0.000006

[...]

     Self-consistent Calculation

[...]

     Threshold (ethr) on eigenvalues was too large:
     Diagonalizing with lowered threshold

     Davidson diagonalization with overlap
     ethr =  1.03E-08,  avg # of iterations =  8.2

[...]

     total energy              =    -471.60330411 Ry
     estimated scf accuracy    <       0.00000007 Ry

     iteration #  6     ecut=    20.00 Ry     beta= 0.70
     Davidson diagonalization with overlap
     ethr =  1.64E-10,  avg # of iterations =  4.8

[...]

     End of self-consistent calculation

[...]

          k = 0.3333 0.6667 0.0000 (  5128 PWs)   bands (ev):

   -10.9011 -10.0222  -9.6210  -8.9677  -8.2358  -7.7342  -7.1842  -6.6700
    -5.9980  -5.4676  -5.1062  -4.5177  -4.2037  -3.7519  -3.4572  -3.2524
    -2.6564  -2.3487  -2.2675  -1.7903  -1.5228  -0.8135

     highest occupied level (ev):    -0.5313

!    total energy              =    -471.60330412 Ry

     total all-electron energy =     -5805.061937 Ry
     estimated scf accuracy    <          8.9E-09 Ry

     The total energy is the sum of the following terms:
     one-electron contribution =    -387.60014519 Ry
     hartree contribution      =     205.38951081 Ry
     xc contribution           =     -64.21169073 Ry
     ewald contribution        =     130.75341046 Ry
     one-center paw contrib.   =    -355.93438948 Ry

     convergence has been achieved in   6 iterations

     negative rho (up, down):  1.363E-02 0.000E+00

     Forces acting on atoms (cartesian axes, Ry/au):

     atom    1 type  1   force =    -0.00059288    0.00000000    0.00034160
     atom    2 type  1   force =    -0.00012437    0.00000000    0.00064906
     atom    3 type  1   force =    -0.00000253    0.00000000    0.00020589
     atom    4 type  1   force =     0.00023457    0.00000000   -0.00032738
     atom    5 type  1   force =    -0.00016979    0.00000000    0.00016394
     atom    6 type  1   force =    -0.00076850    0.00000000   -0.00024408
     atom    7 type  1   force =     0.00029320    0.00000000    0.00002524
     atom    8 type  1   force =    -0.00096214    0.00000000    0.00046535
     atom    9 type  1   force =     0.00579689    0.00000000    0.01713202
     atom   10 type  1   force =    -0.00329851    0.00000000    0.01450486
     atom   11 type  2   force =     0.00346911    0.01290518   -0.00827329
     atom   12 type  2   force =     0.00346911   -0.01290518   -0.00827329
     atom   13 type  2   force =    -0.00367208    0.01378848   -0.00818496
     atom   14 type  2   force =    -0.00367208   -0.01378848   -0.00818496

     Total force =     0.001745     Total SCF correction =     0.000162

     bfgs converged in  26 scf cycles and  25 bfgs steps
     (criteria: energy <  1.0E-04 Ry, force <  1.0E-03 Ry/Bohr)

     End of BFGS Geometry Optimization

     Final energy   =    -471.6033041243 Ry

     File ./pwscf.bfgs deleted, as requested
Begin final coordinates

ATOMIC_POSITIONS (angstrom)
Si            0.7854261348        0.0000000000        9.0441850885
Si            6.2941413788        0.0000000000        9.7632982151
Si            1.8892554009        1.9198300000        8.4137221615
Si            5.8643242748        1.9198300000        8.4624059383
Si            3.8891369824        1.9198300000        7.1245252978
Si           -0.0217198279        1.9198300000        6.9522139694
Si            3.8419509583        0.0000000000        5.7252560671
Si            0.0038732211        0.0000000000        5.6313432904
Si            1.9198300000        0.0000000000        4.3212500000    0   0   0
Si            5.7594900000        0.0000000000        4.3212500000    0   0   0
H             1.9198300000       -1.2086295000        3.4670751200    0   0   0
H             1.9198300000        1.2086295000        3.4670751200    0   0   0
H             5.7594900000       -1.2086295000        3.4670751200    0   0   0
H             5.7594900000        1.2086295000        3.4670751200    0   0   0
End final coordinates

     Writing output data file ./pwscf.save/

     General routines

     Parallel routines

   This run was terminated on:   1:42:25  12Oct2021

   JOB DONE.